[-1, 888, 0, 0, 172, 0, 0, 0, 
272, -1, 0, 110, 279, 175, 0, 0, 
0, 611, -1, 171, 825, 812, 0, 315, 
216, 0, 828, -1, 118, 0, 0, 814, 
351, 0, 0, 881, -1, 921, 607, 0, 
610, 0, 267, 0, 957, -1, 566, 168, 
505, 0, 923, 0, 0, 815, -1, 98, 
238, 538, 97, 0, 744, 0, 911, -1]